
Cover cuts applied:  1
Implied bound cuts applied:  59
Mixed integer rounding cuts applied:  7
Zero-half cuts applied:  2

Root node processing (before b&c):
  Real time             =    0.10 sec. (52.03 ticks)
Parallel b&c, 4 threads:
  Real time             =    0.03 sec. (13.50 ticks)
  Sync time (average)   =    0.01 sec.
  Wait time (average)   =    0.00 sec.
                          ------------
Total (root+branch&cut) =    0.13 sec. (65.53 ticks)
Version identifier: 12.10.0.0 | 2019-11-26 | 843d4de
CPXPARAM_MIP_Interval                            10
CPXPARAM_MIP_Tolerances_AbsMIPGap                0.98999999999999999
Tried aggregator 2 times.
MIP Presolve eliminated 5787 rows and 2796 columns.
MIP Presolve added 4 rows and 0 columns.
MIP Presolve modified 178 coefficients.
Aggregator did 11 substitutions.
Reduced MIP has 2828 rows, 270 columns, and 6074 nonzeros.
Reduced MIP has 217 binaries, 53 generals, 0 SOSs, and 0 indicators.
Presolve time = 0.01 sec. (9.14 ticks)
Probing fixed 0 vars, tightened 6 bounds.
Probing time = 0.00 sec. (1.12 ticks)
Cover probing fixed 0 vars, tightened 42 bounds.
Tried aggregator 1 time.
Detecting symmetries...
MIP Presolve eliminated 2330 rows and 0 columns.
MIP Presolve modified 21 coefficients.
Reduced MIP has 498 rows, 270 columns, and 1414 nonzeros.
Reduced MIP has 217 binaries, 53 generals, 0 SOSs, and 0 indicators.
Presolve time = 0.00 sec. (2.16 ticks)
Probing fixed 0 vars, tightened 6 bounds.
Probing time = 0.00 sec. (0.28 ticks)
Cover probing fixed 0 vars, tightened 39 bounds.
Clique table members: 334.
MIP emphasis: balance optimality and feasibility.
MIP search method: dynamic search.
Parallel mode: deterministic, using up to 4 threads.
Root relaxation solution time = 0.01 sec. (2.89 ticks)

        Nodes                                         Cuts/
   Node  Left     Objective  IInf  Best Integer    Best Bound    ItCnt     Gap

      0     0       35.3333    80                     35.3333      260         
      0     0       35.3333    80                    Cuts: 28      322         
      0     0       35.3333    80                    Cuts: 23      379         
*     0+    0                           32.0000       35.3333            10.42%
Detecting symmetries...
      0     2       35.3333    10       32.0000       35.3333      379   10.42%
Elapsed time = 0.08 sec. (54.36 ticks, tree = 0.02 MB, solutions = 1)
*     5+    1                           34.0000       35.3333             3.92%
     10     8       35.0000    17       34.0000       35.3333      649    3.92%
     20    13        cutoff             34.0000       35.3333      919    3.92%
     30    13       35.0667    61       34.0000       35.3333     1277    3.92%
     40    10        cutoff             34.0000       35.3333     1375    3.92%
     50    14       35.1667    23       34.0000       35.3333     1813    3.92%
     60    14       35.1111    82       34.0000       35.3333     2346    3.92%
     70     7       35.0741    92       34.0000       35.3333     2677    3.92%
     80     4        cutoff             34.0000       35.1111     3178    3.27%
     90     1       35.0000    53       34.0000       35.0000     3546    2.94%
the number of Nodes = 92
